set I := 0 1 2 3 4 5 6 7 8 9 10 11 12 13 14 15 16 17 18 19 20 21 22 23 24 25 26 27 28 29;

param cap := 150;

param: size:=
    0 100
    1 98
    2 96
    3 92
    4 90
    5 87
    6 84
    7 82
    8 79
    9 76
    10 72
    11 70
    12 67
    13 65
    14 62
    15 60
    16 57
    17 55
    18 53
    19 50
    20 48
    21 45
    22 43
    23 40
    24 37
    25 34
    26 32
    27 27
    28 25
    29 21;
